(set-option :produce-proofs true)
(declare-const x0c0 Int)
(assert (>= x0c0 0))
(assert (<= x0c0 1))
(declare-const x0c1 Int)
(assert (>= x0c1 0))
(assert (<= x0c1 1))
(declare-const x0c2 Int)
(assert (>= x0c2 0))
(assert (<= x0c2 1))
(assert (= 1 (+ x0c0 x0c1 x0c2)))
(declare-const x1c0 Int)
(assert (>= x1c0 0))
(assert (<= x1c0 1))
(declare-const x1c1 Int)
(assert (>= x1c1 0))
(assert (<= x1c1 1))
(declare-const x1c2 Int)
(assert (>= x1c2 0))
(assert (<= x1c2 1))
(assert (= 1 (+ x1c0 x1c1 x1c2)))
(declare-const x2c0 Int)
(assert (>= x2c0 0))
(assert (<= x2c0 1))
(declare-const x2c1 Int)
(assert (>= x2c1 0))
(assert (<= x2c1 1))
(declare-const x2c2 Int)
(assert (>= x2c2 0))
(assert (<= x2c2 1))
(assert (= 1 (+ x2c0 x2c1 x2c2)))
(declare-const x3c0 Int)
(assert (>= x3c0 0))
(assert (<= x3c0 1))
(declare-const x3c1 Int)
(assert (>= x3c1 0))
(assert (<= x3c1 1))
(declare-const x3c2 Int)
(assert (>= x3c2 0))
(assert (<= x3c2 1))
(assert (= 1 (+ x3c0 x3c1 x3c2)))
(declare-const x4c0 Int)
(assert (>= x4c0 0))
(assert (<= x4c0 1))
(declare-const x4c1 Int)
(assert (>= x4c1 0))
(assert (<= x4c1 1))
(declare-const x4c2 Int)
(assert (>= x4c2 0))
(assert (<= x4c2 1))
(assert (= 1 (+ x4c0 x4c1 x4c2)))
(declare-const x5c0 Int)
(assert (>= x5c0 0))
(assert (<= x5c0 1))
(declare-const x5c1 Int)
(assert (>= x5c1 0))
(assert (<= x5c1 1))
(declare-const x5c2 Int)
(assert (>= x5c2 0))
(assert (<= x5c2 1))
(assert (= 1 (+ x5c0 x5c1 x5c2)))
(declare-const x6c0 Int)
(assert (>= x6c0 0))
(assert (<= x6c0 1))
(declare-const x6c1 Int)
(assert (>= x6c1 0))
(assert (<= x6c1 1))
(declare-const x6c2 Int)
(assert (>= x6c2 0))
(assert (<= x6c2 1))
(assert (= 1 (+ x6c0 x6c1 x6c2)))
(declare-const x7c0 Int)
(assert (>= x7c0 0))
(assert (<= x7c0 1))
(declare-const x7c1 Int)
(assert (>= x7c1 0))
(assert (<= x7c1 1))
(declare-const x7c2 Int)
(assert (>= x7c2 0))
(assert (<= x7c2 1))
(assert (= 1 (+ x7c0 x7c1 x7c2)))
(declare-const x8c0 Int)
(assert (>= x8c0 0))
(assert (<= x8c0 1))
(declare-const x8c1 Int)
(assert (>= x8c1 0))
(assert (<= x8c1 1))
(declare-const x8c2 Int)
(assert (>= x8c2 0))
(assert (<= x8c2 1))
(assert (= 1 (+ x8c0 x8c1 x8c2)))
(declare-const x9c0 Int)
(assert (>= x9c0 0))
(assert (<= x9c0 1))
(declare-const x9c1 Int)
(assert (>= x9c1 0))
(assert (<= x9c1 1))
(declare-const x9c2 Int)
(assert (>= x9c2 0))
(assert (<= x9c2 1))
(assert (= 1 (+ x9c0 x9c1 x9c2)))
(declare-const x10c0 Int)
(assert (>= x10c0 0))
(assert (<= x10c0 1))
(declare-const x10c1 Int)
(assert (>= x10c1 0))
(assert (<= x10c1 1))
(declare-const x10c2 Int)
(assert (>= x10c2 0))
(assert (<= x10c2 1))
(assert (= 1 (+ x10c0 x10c1 x10c2)))
(assert (>= 1 (+ x1c0 x0c0)))
(assert (>= 1 (+ x1c1 x0c1)))
(assert (>= 1 (+ x2c0 x1c0)))
(assert (>= 1 (+ x2c0 x0c0)))
(assert (>= 1 (+ x2c1 x1c1)))
(assert (>= 1 (+ x2c1 x0c1)))
(assert (>= 1 (+ x3c0 x2c0)))
(assert (>= 1 (+ x3c0 x1c0)))
(assert (>= 1 (+ x3c0 x0c0)))
(assert (>= 1 (+ x3c1 x2c1)))
(assert (>= 1 (+ x3c1 x1c1)))
(assert (>= 1 (+ x3c1 x0c1)))
(assert (>= 3 (+ x3c2 x2c2 x1c2 x0c2)))
(assert (>= 1 (+ x4c0 x3c0)))
(assert (>= 1 (+ x4c0 x2c0)))
(assert (>= 1 (+ x4c0 x1c0)))
(assert (>= 1 (+ x4c0 x0c0)))
(assert (>= 1 (+ x4c1 x3c1)))
(assert (>= 1 (+ x4c1 x2c1)))
(assert (>= 1 (+ x4c1 x1c1)))
(assert (>= 1 (+ x4c1 x0c1)))
(assert (>= 3 (+ x4c2 x3c2 x2c2 x1c2)))
(assert (>= 1 (+ x5c0 x4c0)))
(assert (>= 1 (+ x5c0 x3c0)))
(assert (>= 1 (+ x5c0 x2c0)))
(assert (>= 1 (+ x5c0 x1c0)))
(assert (>= 1 (+ x5c0 x0c0)))
(assert (>= 1 (+ x5c1 x4c1)))
(assert (>= 1 (+ x5c1 x3c1)))
(assert (>= 1 (+ x5c1 x2c1)))
(assert (>= 1 (+ x5c1 x1c1)))
(assert (>= 1 (+ x5c1 x0c1)))
(assert (>= 3 (+ x5c2 x4c2 x3c2 x2c2)))
(assert (>= 1 (+ x6c0 x5c0)))
(assert (>= 1 (+ x6c0 x4c0)))
(assert (>= 1 (+ x6c0 x3c0)))
(assert (>= 1 (+ x6c0 x2c0)))
(assert (>= 1 (+ x6c0 x1c0)))
(assert (>= 1 (+ x6c0 x0c0)))
(assert (>= 1 (+ x6c1 x5c1)))
(assert (>= 1 (+ x6c1 x4c1)))
(assert (>= 1 (+ x6c1 x3c1)))
(assert (>= 1 (+ x6c1 x2c1)))
(assert (>= 1 (+ x6c1 x1c1)))
(assert (>= 1 (+ x6c1 x0c1)))
(assert (>= 3 (+ x6c2 x5c2 x4c2 x3c2)))
(assert (>= 3 (+ x6c2 x4c2 x2c2 x0c2)))
(assert (>= 1 (+ x7c0 x6c0)))
(assert (>= 1 (+ x7c0 x5c0)))
(assert (>= 1 (+ x7c0 x4c0)))
(assert (>= 1 (+ x7c0 x3c0)))
(assert (>= 1 (+ x7c0 x2c0)))
(assert (>= 1 (+ x7c0 x1c0)))
(assert (>= 1 (+ x7c0 x0c0)))
(assert (>= 1 (+ x7c1 x6c1)))
(assert (>= 1 (+ x7c1 x5c1)))
(assert (>= 1 (+ x7c1 x4c1)))
(assert (>= 1 (+ x7c1 x3c1)))
(assert (>= 1 (+ x7c1 x2c1)))
(assert (>= 1 (+ x7c1 x1c1)))
(assert (>= 1 (+ x7c1 x0c1)))
(assert (>= 3 (+ x7c2 x6c2 x5c2 x4c2)))
(assert (>= 3 (+ x7c2 x5c2 x3c2 x1c2)))
(assert (>= 1 (+ x8c0 x7c0)))
(assert (>= 1 (+ x8c0 x6c0)))
(assert (>= 1 (+ x8c0 x5c0)))
(assert (>= 1 (+ x8c0 x4c0)))
(assert (>= 1 (+ x8c0 x3c0)))
(assert (>= 1 (+ x8c0 x2c0)))
(assert (>= 1 (+ x8c0 x1c0)))
(assert (>= 1 (+ x8c0 x0c0)))
(assert (>= 1 (+ x8c1 x7c1)))
(assert (>= 1 (+ x8c1 x6c1)))
(assert (>= 1 (+ x8c1 x5c1)))
(assert (>= 1 (+ x8c1 x4c1)))
(assert (>= 1 (+ x8c1 x3c1)))
(assert (>= 1 (+ x8c1 x2c1)))
(assert (>= 1 (+ x8c1 x1c1)))
(assert (>= 1 (+ x8c1 x0c1)))
(assert (>= 3 (+ x8c2 x7c2 x6c2 x5c2)))
(assert (>= 3 (+ x8c2 x6c2 x4c2 x2c2)))
(assert (>= 1 (+ x9c0 x8c0)))
(assert (>= 1 (+ x9c0 x7c0)))
(assert (>= 1 (+ x9c0 x6c0)))
(assert (>= 1 (+ x9c0 x5c0)))
(assert (>= 1 (+ x9c0 x4c0)))
(assert (>= 1 (+ x9c0 x3c0)))
(assert (>= 1 (+ x9c0 x2c0)))
(assert (>= 1 (+ x9c0 x1c0)))
(assert (>= 1 (+ x9c0 x0c0)))
(assert (>= 1 (+ x9c1 x8c1)))
(assert (>= 1 (+ x9c1 x7c1)))
(assert (>= 1 (+ x9c1 x6c1)))
(assert (>= 1 (+ x9c1 x5c1)))
(assert (>= 1 (+ x9c1 x4c1)))
(assert (>= 1 (+ x9c1 x3c1)))
(assert (>= 1 (+ x9c1 x2c1)))
(assert (>= 1 (+ x9c1 x1c1)))
(assert (>= 1 (+ x9c1 x0c1)))
(assert (>= 3 (+ x9c2 x8c2 x7c2 x6c2)))
(assert (>= 3 (+ x9c2 x7c2 x5c2 x3c2)))
(assert (>= 3 (+ x9c2 x6c2 x3c2 x0c2)))
(assert (>= 1 (+ x10c0 x9c0)))
(assert (>= 1 (+ x10c0 x8c0)))
(assert (>= 1 (+ x10c0 x7c0)))
(assert (>= 1 (+ x10c0 x6c0)))
(assert (>= 1 (+ x10c0 x5c0)))
(assert (>= 1 (+ x10c0 x4c0)))
(assert (>= 1 (+ x10c0 x3c0)))
(assert (>= 1 (+ x10c0 x2c0)))
(assert (>= 1 (+ x10c0 x1c0)))
(assert (>= 1 (+ x10c0 x0c0)))
(assert (>= 1 (+ x10c1 x9c1)))
(assert (>= 1 (+ x10c1 x8c1)))
(assert (>= 1 (+ x10c1 x7c1)))
(assert (>= 1 (+ x10c1 x6c1)))
(assert (>= 1 (+ x10c1 x5c1)))
(assert (>= 1 (+ x10c1 x4c1)))
(assert (>= 1 (+ x10c1 x3c1)))
(assert (>= 1 (+ x10c1 x2c1)))
(assert (>= 1 (+ x10c1 x1c1)))
(assert (>= 1 (+ x10c1 x0c1)))
(assert (>= 3 (+ x10c2 x9c2 x8c2 x7c2)))
(assert (>= 3 (+ x10c2 x8c2 x6c2 x4c2)))
(assert (>= 3 (+ x10c2 x7c2 x4c2 x1c2)))
(check-sat)
(get-proof)
